(set-info :smt-lib-version 2.6)
(set-info :category "crafted")
(set-logic QF_FFA)
(define-sort FF0 () (_ FiniteField 52435875175126190479447740508185965837690552500527637822603658699938581184513))
(declare-fun x13 () Bool)
(declare-fun x12 () Bool)
(declare-fun x11 () Bool)
(declare-fun x10 () Bool)
(declare-fun x9 () Bool)
(declare-fun x8 () Bool)
(declare-fun x7 () Bool)
(declare-fun x6 () Bool)
(declare-fun x5 () Bool)
(declare-fun x4 () Bool)
(declare-fun x3 () Bool)
(declare-fun x2 () Bool)
(declare-fun x1 () Bool)
(declare-fun x0 () Bool)
(declare-fun out () FF0)
(declare-fun _26 () FF0)
(declare-fun _25 () FF0)
(declare-fun _5 () FF0)
(declare-fun _24 () FF0)
(declare-fun _4 () FF0)
(declare-fun _23 () FF0)
(declare-fun _3 () FF0)
(declare-fun _22 () FF0)
(declare-fun _2 () FF0)
(declare-fun _21 () FF0)
(declare-fun _13 () FF0)
(declare-fun _20 () FF0)
(declare-fun _12 () FF0)
(declare-fun _19 () FF0)
(declare-fun _11 () FF0)
(declare-fun _18 () FF0)
(declare-fun _10 () FF0)
(declare-fun _17 () FF0)
(declare-fun _9 () FF0)
(declare-fun _16 () FF0)
(declare-fun _8 () FF0)
(declare-fun _15 () FF0)
(declare-fun _7 () FF0)
(declare-fun _14 () FF0)
(declare-fun _6 () FF0)
(declare-fun _1 () FF0)
(declare-fun _0 () FF0)
(assert 
  (let ((let0 x13))
  (let ((let1 x12))
  (let ((let2 x11))
  (let ((let3 x10))
  (let ((let4 x9))
  (let ((let5 x8))
  (let ((let6 x7))
  (let ((let7 x6))
  (let ((let8 x5))
  (let ((let9 x4))
  (let ((let10 x3))
  (let ((let11 x2))
  (let ((let12 x1))
  (let ((let13 x0))
  (let ((let14 (or let13 let12 let11 let10 let9 let8 let7 let6 let5 let4 let3 let2 let1 let0)))
  (let ((let15 out))
  (let ((let16 (as ff1 FF0)))
  (let ((let17 (= let16 let15)))
  (let ((let18 (= let17 let14)))
  (let ((let19 (as ff0 FF0)))
  (let ((let20 (= let19 let15)))
  (let ((let21 (or let17 let20)))
  (let ((let22 (and let21 let18)))
  (let ((let23 _26))
  (let ((let24 (= let23 let15)))
  (let ((let25 (as ff52435875175126190479447740508185965837690552500527637822603658699938581184512 FF0)))
  (let ((let26 (ff.mul let23 let25)))
  (let ((let27 _25))
  (let ((let28 _5))
  (let ((let29 (ff.add let28 let27 let26)))
  (let ((let30 (ff.mul let27 let28)))
  (let ((let31 (= let30 let29)))
  (let ((let32 (ff.mul let27 let25)))
  (let ((let33 _24))
  (let ((let34 _4))
  (let ((let35 (ff.add let34 let33 let32)))
  (let ((let36 (ff.mul let33 let34)))
  (let ((let37 (= let36 let35)))
  (let ((let38 (ff.mul let33 let25)))
  (let ((let39 _23))
  (let ((let40 _3))
  (let ((let41 (ff.add let40 let39 let38)))
  (let ((let42 (ff.mul let39 let40)))
  (let ((let43 (= let42 let41)))
  (let ((let44 (ff.mul let39 let25)))
  (let ((let45 _22))
  (let ((let46 _2))
  (let ((let47 (ff.add let46 let45 let44)))
  (let ((let48 (ff.mul let45 let46)))
  (let ((let49 (= let48 let47)))
  (let ((let50 (ff.mul let45 let25)))
  (let ((let51 _21))
  (let ((let52 _13))
  (let ((let53 (ff.add let52 let51 let50)))
  (let ((let54 (ff.mul let51 let52)))
  (let ((let55 (= let54 let53)))
  (let ((let56 (ff.mul let51 let25)))
  (let ((let57 _20))
  (let ((let58 _12))
  (let ((let59 (ff.add let58 let57 let56)))
  (let ((let60 (ff.mul let57 let58)))
  (let ((let61 (= let60 let59)))
  (let ((let62 (ff.mul let57 let25)))
  (let ((let63 _19))
  (let ((let64 _11))
  (let ((let65 (ff.add let64 let63 let62)))
  (let ((let66 (ff.mul let63 let64)))
  (let ((let67 (= let66 let65)))
  (let ((let68 (ff.mul let63 let25)))
  (let ((let69 _18))
  (let ((let70 _10))
  (let ((let71 (ff.add let70 let69 let68)))
  (let ((let72 (ff.mul let69 let70)))
  (let ((let73 (= let72 let71)))
  (let ((let74 (ff.mul let69 let25)))
  (let ((let75 _17))
  (let ((let76 _9))
  (let ((let77 (ff.add let76 let75 let74)))
  (let ((let78 (ff.mul let75 let76)))
  (let ((let79 (= let78 let77)))
  (let ((let80 (ff.mul let75 let25)))
  (let ((let81 _16))
  (let ((let82 _8))
  (let ((let83 (ff.add let82 let81 let80)))
  (let ((let84 (ff.mul let81 let82)))
  (let ((let85 (= let84 let83)))
  (let ((let86 (ff.mul let81 let25)))
  (let ((let87 _15))
  (let ((let88 _7))
  (let ((let89 (ff.add let88 let87 let86)))
  (let ((let90 (ff.mul let87 let88)))
  (let ((let91 (= let90 let89)))
  (let ((let92 (ff.mul let87 let25)))
  (let ((let93 _14))
  (let ((let94 _6))
  (let ((let95 (ff.add let94 let93 let92)))
  (let ((let96 (ff.mul let93 let94)))
  (let ((let97 (= let96 let95)))
  (let ((let98 (ff.mul let93 let25)))
  (let ((let99 _1))
  (let ((let100 _0))
  (let ((let101 (ff.add let100 let99 let98)))
  (let ((let102 (ff.mul let100 let99)))
  (let ((let103 (= let102 let101)))
  (let ((let104 (ff.mul let52 let52)))
  (let ((let105 (= let104 let52)))
  (let ((let106 (ff.mul let58 let58)))
  (let ((let107 (= let106 let58)))
  (let ((let108 (ff.mul let64 let64)))
  (let ((let109 (= let108 let64)))
  (let ((let110 (ff.mul let70 let70)))
  (let ((let111 (= let110 let70)))
  (let ((let112 (ff.mul let76 let76)))
  (let ((let113 (= let112 let76)))
  (let ((let114 (ff.mul let82 let82)))
  (let ((let115 (= let114 let82)))
  (let ((let116 (ff.mul let88 let88)))
  (let ((let117 (= let116 let88)))
  (let ((let118 (ff.mul let94 let94)))
  (let ((let119 (= let118 let94)))
  (let ((let120 (ff.mul let28 let28)))
  (let ((let121 (= let120 let28)))
  (let ((let122 (ff.mul let34 let34)))
  (let ((let123 (= let122 let34)))
  (let ((let124 (ff.mul let40 let40)))
  (let ((let125 (= let124 let40)))
  (let ((let126 (ff.mul let46 let46)))
  (let ((let127 (= let126 let46)))
  (let ((let128 (ff.mul let99 let99)))
  (let ((let129 (= let128 let99)))
  (let ((let130 (ff.mul let100 let100)))
  (let ((let131 (= let130 let100)))
  (let ((let132 (and let131 let129 let127 let125 let123 let121 let119 let117 let115 let113 let111 let109 let107 let105 let103 let97 let91 let85 let79 let73 let67 let61 let55 let49 let43 let37 let31 let24)))
  (let ((let133 (ite let4 let16 let19)))
  (let ((let134 (= let52 let133)))
  (let ((let135 (ite let7 let16 let19)))
  (let ((let136 (= let70 let135)))
  (let ((let137 (ite let9 let16 let19)))
  (let ((let138 (= let82 let137)))
  (let ((let139 (ite let0 let16 let19)))
  (let ((let140 (= let28 let139)))
  (let ((let141 (ite let1 let16 let19)))
  (let ((let142 (= let34 let141)))
  (let ((let143 (ite let3 let16 let19)))
  (let ((let144 (= let46 let143)))
  (let ((let145 (ite let12 let16 let19)))
  (let ((let146 (= let99 let145)))
  (let ((let147 (ite let8 let16 let19)))
  (let ((let148 (= let76 let147)))
  (let ((let149 (ite let5 let16 let19)))
  (let ((let150 (= let58 let149)))
  (let ((let151 (ite let10 let16 let19)))
  (let ((let152 (= let88 let151)))
  (let ((let153 (ite let13 let16 let19)))
  (let ((let154 (= let100 let153)))
  (let ((let155 (ite let2 let16 let19)))
  (let ((let156 (= let40 let155)))
  (let ((let157 (ite let11 let16 let19)))
  (let ((let158 (= let94 let157)))
  (let ((let159 (ite let6 let16 let19)))
  (let ((let160 (= let64 let159)))
  (let ((let161 (and let160 let158 let156 let154 let152 let150 let148 let146 let144 let142 let140 let138 let136 let134)))
  (let ((let162 (and let161 let132)))
  (let ((let163 (=> let162 let22)))
  (let ((let164 (not let163)))
  let164
)))))))))))))))))))))))))))))))))))))))))))))))))))))))))))))))))))))))))))))))))))))))))))))))))))))))))))))))))))))))))))))))))))))))))))))))))))))))))))))))))))))
)
(check-sat)
